1	1
2	4
3	1
4	3
5	2
6	4
7	1
8	1
9	1
10	1
11	1
12	1
13	2
14	1
15	1
16	1
17	1
18	2
19	2
20	1
21	1
22	1
23	1
24	1
25	2
26	4
27	1
28	4
29	4
30	4
31	4
32	4
33	4
34	2
35	5
36	1
37	1
38	1
39	2
40	4
41	1
42	1
43	2
44	1
45	4
46	1
47	2
48	2
49	1
50	1
51	4
52	2
53	4
54	1
55	1
56	1
57	4
58	2
59	2
60	1
61	1
62	1
63	1
64	2
65	2
66	1
67	2
68	1
69	1
70	2
71	1
72	4
73	4
74	1
75	1
76	1
77	2
78	1
79	1
80	1
81	4
82	1
83	4
84	1
85	2
86	2
87	4
88	4
89	1
90	1
91	4
92	1
93	1
94	1
95	1
96	2
97	4
98	1
99	1
100	1
